qbf_easy_train/easy_4556_SAT.qdimacs
p cnf 21 48
a 8 2 6 0
e 1 3 4 5 7 9 10 11 12 13 14 15 16 17 18 19 20 21 0
-1 -2 -3 0
1 2 -3 0
-1 2 3 0
1 -2 3 0
5 -3 0
5 -4 0
3 4 -5 0
-7 -4 0
-7 6 0
4 -6 7 0
8 9 -10 0
-8 -9 -10 0
8 -9 10 0
-8 9 10 0
-11 7 0
-11 10 0
-7 -10 11 0
-13 9 0
-13 12 0
-9 -12 13 0
15 3 0
15 -14 0
-3 14 -15 0
16 4 0
16 -2 0
-4 2 -16 0
-17 -16 0
-17 12 0
16 -12 17 0
-15 17 -18 0
15 -17 -18 0
-15 -17 18 0
15 17 18 0
-19 13 0
-19 18 0
-13 -18 19 0
-20 -11 0
-20 -19 0
11 19 20 0
5 20 -21 0
-5 -20 -21 0
5 -20 21 0
-5 20 21 0
5 19 18 2 -13 8 14 0
21 -16 3 -4 0
18 4 14 -16 15 -19 -13 0
17 15 11 5 -9 -16 0
21 0
