sat_easy_train/easy_4556_SAT.dimacs
p cnf 102 329
-5 -3 0
-5 4 0
3 -4 5 0
6 2 0
6 5 0
-2 -5 -6 0
1 6 -7 0
-1 -6 -7 0
1 -6 7 0
-1 6 7 0
10 8 0
10 -9 0
-8 9 -10 0
14 12 0
14 -13 0
-12 13 -14 0
15 1 0
15 14 0
-1 -14 -15 0
-16 -11 0
-16 -15 0
11 15 16 0
-17 10 0
-17 -16 0
-10 16 17 0
18 -7 0
18 17 0
7 -17 -18 0
-20 -19 0
-20 8 0
19 -8 20 0
4 -8 -21 0
-4 8 -21 0
4 8 21 0
-4 -8 21 0
22 21 0
22 21 0
-21 -22 0
-20 22 -23 0
20 -22 -23 0
-20 -22 23 0
20 22 23 0
25 24 0
25 -2 0
-24 2 -25 0
-26 14 0
-26 25 0
-14 -25 26 0
27 11 -28 0
-27 -11 -28 0
27 -11 28 0
-27 11 28 0
8 9 -29 0
-8 -9 -29 0
8 -9 29 0
-8 9 29 0
-30 28 0
-30 -29 0
-28 29 30 0
26 30 -31 0
-26 -30 -31 0
26 -30 31 0
-26 30 31 0
-32 23 0
-32 31 0
-23 -31 32 0
33 18 0
33 -32 0
-18 32 -33 0
-35 -3 0
-35 13 0
3 -13 35 0
36 34 0
36 35 0
-34 -35 -36 0
35 -25 -37 0
-35 25 -37 0
35 25 37 0
-35 -25 37 0
-36 37 -38 0
36 -37 -38 0
-36 -37 38 0
36 37 38 0
-1 -39 0
1 -39 0
39 12 -40 0
-39 -12 -40 0
39 -12 40 0
-39 12 40 0
41 -8 0
41 -40 0
8 40 -41 0
42 41 0
42 35 0
-41 -35 -42 0
25 -11 -43 0
-25 11 -43 0
25 11 43 0
-25 -11 43 0
-42 43 -44 0
42 -43 -44 0
-42 -43 44 0
42 43 44 0
38 44 -45 0
-38 -44 -45 0
38 -44 45 0
-38 44 45 0
-33 45 -46 0
33 -45 -46 0
-33 -45 46 0
33 45 46 0
-5 47 0
5 47 0
-48 -47 0
-48 -40 0
47 40 48 0
-49 -48 0
-49 -9 0
48 9 49 0
15 -19 -50 0
-15 19 -50 0
15 19 50 0
-15 -19 50 0
50 -13 -51 0
-50 13 -51 0
50 13 51 0
-50 -13 51 0
-49 51 -52 0
49 -51 -52 0
-49 -51 52 0
49 51 52 0
53 29 0
53 -52 0
-29 52 -53 0
-55 54 0
-55 -4 0
-54 4 55 0
57 56 0
57 24 0
-56 -24 -57 0
-58 49 0
-58 57 0
-49 -57 58 0
14 58 -59 0
-14 -58 -59 0
14 -58 59 0
-14 58 59 0
-55 59 -60 0
55 -59 -60 0
-55 -59 60 0
55 59 60 0
-61 -53 0
-61 -60 0
53 60 61 0
62 49 0
62 50 0
-49 -50 -62 0
-29 51 -63 0
29 -51 -63 0
-29 -51 63 0
29 51 63 0
-64 -48 0
-64 -63 0
48 63 64 0
-65 62 0
-65 -64 0
-62 64 65 0
-66 9 0
-66 -49 0
-9 49 66 0
66 5 -67 0
-66 -5 -67 0
66 -5 67 0
-66 5 67 0
-68 12 0
-68 -11 0
-12 11 68 0
67 -68 -69 0
-67 68 -69 0
67 68 69 0
-67 -68 69 0
-70 -13 0
-70 47 0
13 -47 70 0
71 70 0
71 -29 0
-70 29 -71 0
-72 69 0
-72 71 0
-69 -71 72 0
-73 -65 0
-73 72 0
65 -72 73 0
74 61 0
74 -73 0
-61 73 -74 0
75 -34 0
75 -2 0
34 2 -75 0
76 -35 0
76 9 0
35 -9 -76 0
-76 -11 -77 0
76 11 -77 0
-76 11 77 0
76 -11 77 0
78 77 0
78 47 0
-77 -47 -78 0
-13 -4 -79 0
13 4 -79 0
-13 4 79 0
13 -4 79 0
80 -48 0
80 -79 0
48 79 -80 0
81 -78 0
81 80 0
78 -80 -81 0
82 -75 0
82 -81 0
75 81 -82 0
-83 74 0
-83 -82 0
-74 82 83 0
84 46 0
84 83 0
-46 -83 -84 0
-86 -48 0
-86 35 0
48 -35 86 0
87 -85 0
87 86 0
85 -86 -87 0
-88 -12 0
-88 -28 0
12 28 88 0
2 88 -89 0
-2 -88 -89 0
2 -88 89 0
-2 88 89 0
-87 89 -90 0
87 -89 -90 0
-87 -89 90 0
87 89 90 0
-91 13 0
-91 35 0
-13 -35 91 0
41 91 -92 0
-41 -91 -92 0
41 -91 92 0
-41 91 92 0
-93 40 0
-93 -48 0
-40 48 93 0
94 -92 0
94 93 0
92 -93 -94 0
95 -90 0
95 94 0
90 -94 -95 0
54 -56 -96 0
-54 56 -96 0
54 56 96 0
-54 -56 96 0
-97 51 0
-97 -49 0
-51 49 97 0
35 -98 0
-35 -98 0
-97 -98 -99 0
97 98 -99 0
-97 98 99 0
97 -98 99 0
-100 -96 0
-100 99 0
96 -99 100 0
-95 -100 -101 0
95 100 -101 0
-95 100 101 0
95 -100 101 0
84 -101 -102 0
-84 101 -102 0
84 101 102 0
-84 -101 102 0
68 28 -73 -66 0
-94 -97 -42 0
-23 73 0
-57 9 52 36 -15 0
-46 -4 87 -82 0
28 50 -60 -55 0
-61 -65 -69 -72 60 -39 0
77 -89 0
101 -100 0
-22 -91 30 21 -98 -57 0
-96 9 0
-40 -47 -86 -13 -94 -53 0
53 -81 -59 -18 -6 0
88 -42 38 0
40 -97 -92 -62 -45 0
41 -46 -77 -83 25 -40 0
98 70 -44 -18 -75 0
92 44 0
-31 61 0
4 96 13 -52 99 0
44 -65 -18 0
-63 26 -79 0
-27 -14 -17 65 81 60 0
-14 44 2 -80 30 0
-56 12 -69 -101 68 14 0
-26 53 10 -56 0
-1 68 88 20 -83 3 0
-36 -73 -34 -80 -99 0
9 15 -78 40 94 43 0
-44 -1 -39 -6 4 -46 0
43 -11 -13 0
-53 90 0
-88 20 22 63 45 0
102 -25 18 -14 56 -12 0
-25 36 0
-36 -24 -26 -49 0
-17 -66 -69 -36 0
14 -42 26 0
-59 22 63 41 72 -24 0
-44 -99 -31 23 19 0
63 99 -42 0
-35 43 -82 0
-58 -37 0
102 0
